decision_x1=[0,7];
decision_x2=[0,7];
decision_x3=[0,7];
decision_x4=[0,7];
decision_x5=[0,7];
decision_x6=[0,7];
decision_x7=[0,7];
decision_x8=[0,7];
decision_x9=[0,7];
decision_x10=[0,7];
decision_x11=[0,7];
decision_x12=[0,7];
decision_x13=[0,7];
decision_x14=[0,7];
decision_x15=[0,7];
decision_x16=[0,7];
decision_x17=[0,7];
decision_x18=[0,7];
decision_x19=[0,7];
decision_x20=[0,7];
random_y1=[0,7];
random_y2=[0,7];
random_y3=[0,7];
random_y4=[0,7];
random_y5=[0,7];
random_y6=[0,7];
random_y7=[0,7];
random_y8=[0,7];
random_y9=[0,7];
constraint_x2_x1=[
0,0,1.4|
0,1,6.1|
0,2,4.6|
0,3,4.4|
0,4,7.5|
0,5,6.4|
0,6,8.1|
0,7,0.16|
1,0,3.9|
1,1,0.38|
1,2,6.3|
1,3,0.35|
1,4,1.5|
1,5,4.4|
1,6,2.9|
1,7,9.2|
2,0,4|
2,1,1.2|
2,2,7.6|
2,3,8.3|
2,4,9.7|
2,5,2|
2,6,6.3|
2,7,1.9|
3,0,9.2|
3,1,2.8|
3,2,0.41|
3,3,0.43|
3,4,6.5|
3,5,3.5|
3,6,2.8|
3,7,8.3|
4,0,1.6|
4,1,5.5|
4,2,2.4|
4,3,5.8|
4,4,5|
4,5,8.6|
4,6,5.4|
4,7,7.6|
5,0,4.2|
5,1,3.9|
5,2,2.1|
5,3,7.2|
5,4,7.2|
5,5,8.7|
5,6,2.9|
5,7,4.7|
6,0,4.3|
6,1,0.99|
6,2,2.7|
6,3,9|
6,4,7.3|
6,5,4.2|
6,6,0.97|
6,7,5.3|
7,0,6.8|
7,1,2.3|
7,2,0.5|
7,3,2.1|
7,4,8.7|
7,5,3.6|
7,6,8.1|
7,7,0.076|
];
constraint_x3_x2=[
0,0,0.81|
0,1,0.72|
0,2,5.1|
0,3,2.5|
0,4,3|
0,5,7.4|
0,6,4|
0,7,0.78|
1,0,1.2|
1,1,2.5|
1,2,1.9|
1,3,8.1|
1,4,9.2|
1,5,3|
1,6,4.2|
1,7,8.8|
2,0,8|
2,1,2.5|
2,2,4.4|
2,3,1|
2,4,2.7|
2,5,3.1|
2,6,3.2|
2,7,3.5|
3,0,0.47|
3,1,1.3|
3,2,4.6|
3,3,1|
3,4,6.3|
3,5,7.2|
3,6,4.3|
3,7,8.3|
4,0,7|
4,1,3.4|
4,2,1.2|
4,3,5.5|
4,4,3|
4,5,4.8|
4,6,5.3|
4,7,8.2|
5,0,4|
5,1,9.5|
5,2,1.6|
5,3,4|
5,4,7.9|
5,5,8.1|
5,6,1.5|
5,7,1|
6,0,0.62|
6,1,5.7|
6,2,6.3|
6,3,2.7|
6,4,2.2|
6,5,0.42|
6,6,0.91|
6,7,4.1|
7,0,9.2|
7,1,8.4|
7,2,5.5|
7,3,3.7|
7,4,0.6|
7,5,0.28|
7,6,6.6|
7,7,6.6|
];
constraint_x4_x3=[
0,0,8.7|
0,1,0.24|
0,2,8.7|
0,3,2.8|
0,4,5.6|
0,5,1.8|
0,6,5.7|
0,7,9.6|
1,0,3.1|
1,1,5|
1,2,1.7|
1,3,6.4|
1,4,8.1|
1,5,4.8|
1,6,6.6|
1,7,8|
2,0,3.9|
2,1,9.3|
2,2,7.5|
2,3,4|
2,4,5.6|
2,5,5.1|
2,6,3.2|
2,7,6.7|
3,0,6.6|
3,1,2.9|
3,2,4.1|
3,3,0.97|
3,4,3.9|
3,5,7.5|
3,6,3.9|
3,7,4.4|
4,0,2.2|
4,1,9.8|
4,2,1.9|
4,3,7.4|
4,4,6.5|
4,5,0.17|
4,6,9.8|
4,7,3.8|
5,0,9.6|
5,1,8.8|
5,2,2.6|
5,3,2.2|
5,4,9.2|
5,5,1.5|
5,6,4.2|
5,7,2.5|
6,0,4.3|
6,1,8.3|
6,2,9|
6,3,3.3|
6,4,8.3|
6,5,7|
6,6,0.8|
6,7,9.2|
7,0,8.3|
7,1,7.7|
7,2,0.62|
7,3,3.1|
7,4,2.4|
7,5,4.7|
7,6,0.64|
7,7,9.4|
];
constraint_x5_x1=[
0,0,0.22|
0,1,8.7|
0,2,4.7|
0,3,2.3|
0,4,5.2|
0,5,5.3|
0,6,2.2|
0,7,5|
1,0,1.3|
1,1,3.7|
1,2,3.9|
1,3,6.3|
1,4,5.7|
1,5,2.7|
1,6,1.4|
1,7,5.8|
2,0,1.8|
2,1,8|
2,2,9.8|
2,3,5.5|
2,4,6.8|
2,5,2.8|
2,6,7.9|
2,7,8.6|
3,0,5|
3,1,6.9|
3,2,4.8|
3,3,5.6|
3,4,3.8|
3,5,9.7|
3,6,6.5|
3,7,2.1|
4,0,4.6|
4,1,0.96|
4,2,7|
4,3,9.9|
4,4,6|
4,5,0.046|
4,6,2.6|
4,7,3.1|
5,0,3.3|
5,1,7.8|
5,2,4.7|
5,3,8.8|
5,4,0.076|
5,5,3.5|
5,6,9.2|
5,7,2.8|
6,0,5|
6,1,3.1|
6,2,8.7|
6,3,5.8|
6,4,3.7|
6,5,5.3|
6,6,1.5|
6,7,8|
7,0,6.1|
7,1,5.9|
7,2,8.9|
7,3,4.9|
7,4,9.4|
7,5,9.6|
7,6,3.2|
7,7,7.7|
];
constraint_x6_x2=[
0,0,1.1|
0,1,3|
0,2,2|
0,3,5.8|
0,4,6.4|
0,5,7.7|
0,6,1.4|
0,7,3|
1,0,3.9|
1,1,3.8|
1,2,8.8|
1,3,9.8|
1,4,5.2|
1,5,4.9|
1,6,8.4|
1,7,5.2|
2,0,9.6|
2,1,0.69|
2,2,7.4|
2,3,0.57|
2,4,5.1|
2,5,5.8|
2,6,1.2|
2,7,8.8|
3,0,3.3|
3,1,6.5|
3,2,0.92|
3,3,2.7|
3,4,5.3|
3,5,3.6|
3,6,8.9|
3,7,8.9|
4,0,4.6|
4,1,0.23|
4,2,4|
4,3,1.3|
4,4,3.1|
4,5,3.5|
4,6,4.9|
4,7,1.8|
5,0,5|
5,1,6.9|
5,2,6.1|
5,3,2.2|
5,4,2.1|
5,5,4.6|
5,6,7.5|
5,7,7.5|
6,0,1|
6,1,7.5|
6,2,3.6|
6,3,0.081|
6,4,0.16|
6,5,8.4|
6,6,4.6|
6,7,3.1|
7,0,4.8|
7,1,4.8|
7,2,0.13|
7,3,4.7|
7,4,1.1|
7,5,8.3|
7,6,0.62|
7,7,0.5|
];
constraint_x6_x5=[
0,0,0.88|
0,1,4.5|
0,2,9.8|
0,3,8.6|
0,4,4.2|
0,5,6|
0,6,0.28|
0,7,4.7|
1,0,1.9|
1,1,9.1|
1,2,4|
1,3,9.4|
1,4,1.4|
1,5,3.5|
1,6,8.5|
1,7,8.7|
2,0,2.4|
2,1,6.9|
2,2,8|
2,3,6.5|
2,4,8.9|
2,5,9.5|
2,6,6.4|
2,7,1.2|
3,0,4.7|
3,1,9.3|
3,2,5.6|
3,3,7.2|
3,4,5.9|
3,5,1.9|
3,6,9.8|
3,7,3.4|
4,0,4|
4,1,4.5|
4,2,6.4|
4,3,9.2|
4,4,2.3|
4,5,5.5|
4,6,9.2|
4,7,2.2|
5,0,8.5|
5,1,0.18|
5,2,8.4|
5,3,1.1|
5,4,5.4|
5,5,0.74|
5,6,1.1|
5,7,0.36|
6,0,4.7|
6,1,0.43|
6,2,0.48|
6,3,3.2|
6,4,1.4|
6,5,5.8|
6,6,5.3|
6,7,9.3|
7,0,5.1|
7,1,2.6|
7,2,9.9|
7,3,9.1|
7,4,3.6|
7,5,6.7|
7,6,4.2|
7,7,4.6|
];
constraint_x7_x3=[
0,0,5.9|
0,1,8.6|
0,2,4|
0,3,8.8|
0,4,3.4|
0,5,5.9|
0,6,9.1|
0,7,4.8|
1,0,3.7|
1,1,6.6|
1,2,9.2|
1,3,0.85|
1,4,8.9|
1,5,6|
1,6,7.6|
1,7,4.1|
2,0,10|
2,1,3.3|
2,2,1.3|
2,3,5|
2,4,4.8|
2,5,4|
2,6,8.8|
2,7,6.7|
3,0,9.4|
3,1,0.16|
3,2,8.4|
3,3,8.4|
3,4,8.7|
3,5,9.3|
3,6,3.4|
3,7,8.5|
4,0,10|
4,1,5.7|
4,2,5.6|
4,3,6.9|
4,4,0.87|
4,5,2.7|
4,6,5.3|
4,7,3.3|
5,0,4.8|
5,1,8.2|
5,2,9.3|
5,3,8.9|
5,4,9.3|
5,5,6.2|
5,6,2.2|
5,7,7|
6,0,3.8|
6,1,3.2|
6,2,3.4|
6,3,7.8|
6,4,6.4|
6,5,0.93|
6,6,6.1|
6,7,5.1|
7,0,4.2|
7,1,0.29|
7,2,7.6|
7,3,1.9|
7,4,3.3|
7,5,2.7|
7,6,5.2|
7,7,5.2|
];
constraint_x7_x6=[
0,0,3.9|
0,1,3.4|
0,2,2.5|
0,3,9|
0,4,0.53|
0,5,4.5|
0,6,6|
0,7,6.9|
1,0,3.8|
1,1,7.8|
1,2,0.9|
1,3,1.1|
1,4,9.8|
1,5,3.5|
1,6,0.59|
1,7,8.8|
2,0,6.7|
2,1,8.6|
2,2,6.1|
2,3,8.9|
2,4,7.5|
2,5,0.28|
2,6,1.3|
2,7,7|
3,0,0.47|
3,1,3.7|
3,2,5.6|
3,3,5.9|
3,4,3.6|
3,5,6.4|
3,6,8.6|
3,7,4|
4,0,4.9|
4,1,7.6|
4,2,5.6|
4,3,6.7|
4,4,6.2|
4,5,4|
4,6,5.6|
4,7,9.8|
5,0,7|
5,1,3.1|
5,2,0.86|
5,3,6.5|
5,4,1.5|
5,5,9.4|
5,6,0.67|
5,7,4.6|
6,0,2.5|
6,1,9.1|
6,2,6.5|
6,3,8.6|
6,4,6.2|
6,5,0.29|
6,6,4.1|
6,7,6|
7,0,9.5|
7,1,2.6|
7,2,9.5|
7,3,9.8|
7,4,1.5|
7,5,9.9|
7,6,0.33|
7,7,0.79|
];
constraint_x8_x4=[
0,0,0.82|
0,1,6.8|
0,2,8.8|
0,3,6.8|
0,4,2.1|
0,5,7.4|
0,6,9.5|
0,7,2.5|
1,0,5.1|
1,1,6.7|
1,2,7.5|
1,3,1.6|
1,4,8|
1,5,5.4|
1,6,5.1|
1,7,6.8|
2,0,9.3|
2,1,9.9|
2,2,6.2|
2,3,7|
2,4,1.1|
2,5,1.7|
2,6,8.7|
2,7,8.3|
3,0,2.5|
3,1,3|
3,2,2.3|
3,3,6.6|
3,4,2.7|
3,5,7.1|
3,6,1.6|
3,7,8.3|
4,0,3.6|
4,1,6|
4,2,0.39|
4,3,3.8|
4,4,9.6|
4,5,4.9|
4,6,7.1|
4,7,5.7|
5,0,8.3|
5,1,0.73|
5,2,9.8|
5,3,8|
5,4,9.6|
5,5,2.3|
5,6,7.7|
5,7,2.4|
6,0,2.6|
6,1,8.4|
6,2,4.8|
6,3,6.9|
6,4,7.1|
6,5,7.4|
6,6,9.9|
6,7,1.8|
7,0,7.1|
7,1,3.5|
7,2,4.7|
7,3,5.3|
7,4,7.8|
7,5,3.6|
7,6,2.8|
7,7,6.4|
];
constraint_x8_x7=[
0,0,7.6|
0,1,0.019|
0,2,6.6|
0,3,9.6|
0,4,8.3|
0,5,0.96|
0,6,3.6|
0,7,0.58|
1,0,6.1|
1,1,3.2|
1,2,9.2|
1,3,2.9|
1,4,2.1|
1,5,8.1|
1,6,9.8|
1,7,6.9|
2,0,7.4|
2,1,1.7|
2,2,0.37|
2,3,5.2|
2,4,4.5|
2,5,5.4|
2,6,4.7|
2,7,6.7|
3,0,9.8|
3,1,9|
3,2,3.3|
3,3,3.1|
3,4,1.8|
3,5,0.77|
3,6,4.3|
3,7,4.5|
4,0,5.7|
4,1,10|
4,2,8.5|
4,3,2.7|
4,4,8.2|
4,5,6.7|
4,6,6|
4,7,5.6|
5,0,8.1|
5,1,5.9|
5,2,7.4|
5,3,9.6|
5,4,7.6|
5,5,8.7|
5,6,3.6|
5,7,9.5|
6,0,6.7|
6,1,6.5|
6,2,4.2|
6,3,0.9|
6,4,7.5|
6,5,7.5|
6,6,1.9|
6,7,6.1|
7,0,7.4|
7,1,0.54|
7,2,9.3|
7,3,1.4|
7,4,3.5|
7,5,3.1|
7,6,2.4|
7,7,7.4|
];
constraint_x9_x5=[
0,0,4.9|
0,1,8.1|
0,2,9.6|
0,3,6.2|
0,4,9.2|
0,5,3.7|
0,6,4.7|
0,7,4.1|
1,0,3.5|
1,1,3.1|
1,2,10|
1,3,9.4|
1,4,5|
1,5,7.7|
1,6,2.4|
1,7,6.5|
2,0,3.4|
2,1,6.6|
2,2,9.3|
2,3,1.1|
2,4,7|
2,5,5.4|
2,6,1.6|
2,7,9.5|
3,0,0.052|
3,1,9.2|
3,2,4.4|
3,3,4|
3,4,9.5|
3,5,6.8|
3,6,1.1|
3,7,2.7|
4,0,9|
4,1,9.2|
4,2,4.3|
4,3,3.6|
4,4,9.1|
4,5,3.2|
4,6,3.8|
4,7,3|
5,0,1.4|
5,1,1.1|
5,2,8.9|
5,3,5.3|
5,4,5.9|
5,5,6.9|
5,6,3.7|
5,7,0.89|
6,0,3.4|
6,1,3.9|
6,2,0.63|
6,3,7.3|
6,4,2.8|
6,5,1.7|
6,6,1.4|
6,7,8.7|
7,0,3.5|
7,1,9.2|
7,2,9.5|
7,3,2.7|
7,4,4.8|
7,5,9.3|
7,6,8|
7,7,1.2|
];
constraint_x10_x6=[
0,0,0.73|
0,1,6.2|
0,2,0.49|
0,3,2.1|
0,4,5.4|
0,5,6.3|
0,6,4.9|
0,7,1.8|
1,0,8.9|
1,1,5|
1,2,3.9|
1,3,6.4|
1,4,9.3|
1,5,0.62|
1,6,1.4|
1,7,0.92|
2,0,5.2|
2,1,9|
2,2,6.9|
2,3,2.9|
2,4,4.2|
2,5,7.5|
2,6,5.8|
2,7,2|
3,0,3.1|
3,1,3.6|
3,2,0.9|
3,3,7.7|
3,4,7.3|
3,5,3.7|
3,6,9|
3,7,7.5|
4,0,9|
4,1,3.4|
4,2,3.6|
4,3,6.9|
4,4,2.9|
4,5,8.9|
4,6,7.9|
4,7,2.1|
5,0,2.6|
5,1,7.1|
5,2,5.9|
5,3,5.5|
5,4,9.9|
5,5,1.1|
5,6,8.6|
5,7,7.1|
6,0,5.9|
6,1,1.7|
6,2,6.9|
6,3,7.6|
6,4,9.1|
6,5,6.7|
6,6,5.7|
6,7,2.6|
7,0,9.3|
7,1,5.1|
7,2,7.7|
7,3,0.38|
7,4,6.1|
7,5,4.1|
7,6,1.7|
7,7,3.2|
];
constraint_x10_x9=[
0,0,4|
0,1,3.4|
0,2,4.3|
0,3,10|
0,4,6|
0,5,0.56|
0,6,0.18|
0,7,0.45|
1,0,5|
1,1,2.3|
1,2,7.7|
1,3,7.4|
1,4,6.6|
1,5,4.2|
1,6,9.7|
1,7,1.2|
2,0,9.6|
2,1,3.8|
2,2,8.3|
2,3,3.8|
2,4,8.4|
2,5,1.2|
2,6,8.1|
2,7,7.7|
3,0,8.5|
3,1,8.2|
3,2,1.3|
3,3,4.2|
3,4,8|
3,5,5.7|
3,6,5.3|
3,7,5.1|
4,0,4.3|
4,1,4.8|
4,2,0.51|
4,3,7.9|
4,4,1.6|
4,5,9.7|
4,6,4|
4,7,2.5|
5,0,7.9|
5,1,4.8|
5,2,3.3|
5,3,4.8|
5,4,0.54|
5,5,8.9|
5,6,4.7|
5,7,3.5|
6,0,2.1|
6,1,1.8|
6,2,9.5|
6,3,6.3|
6,4,5.1|
6,5,1.4|
6,6,7.9|
6,7,7.3|
7,0,4.2|
7,1,4.3|
7,2,8.1|
7,3,8.8|
7,4,6.3|
7,5,8.8|
7,6,5.1|
7,7,1.2|
];
constraint_x11_x7=[
0,0,0.17|
0,1,9.5|
0,2,1.7|
0,3,4.8|
0,4,2.6|
0,5,0.3|
0,6,7.1|
0,7,0.53|
1,0,3.7|
1,1,2.2|
1,2,1.4|
1,3,5.7|
1,4,6.6|
1,5,4|
1,6,8.9|
1,7,4.9|
2,0,6.8|
2,1,2.1|
2,2,9.4|
2,3,9|
2,4,3.8|
2,5,4.2|
2,6,2.7|
2,7,0.027|
3,0,6.9|
3,1,9.4|
3,2,4.3|
3,3,2.3|
3,4,5|
3,5,7|
3,6,6.8|
3,7,6.2|
4,0,5.4|
4,1,2|
4,2,3.6|
4,3,7.4|
4,4,3.8|
4,5,1.9|
4,6,7|
4,7,3.7|
5,0,2.8|
5,1,1.3|
5,2,5.7|
5,3,9.8|
5,4,5.1|
5,5,9|
5,6,5.9|
5,7,1.9|
6,0,9.6|
6,1,4.1|
6,2,7.9|
6,3,10|
6,4,0.023|
6,5,8.6|
6,6,0.16|
6,7,2.4|
7,0,0.38|
7,1,6.1|
7,2,6.7|
7,3,2.4|
7,4,8.3|
7,5,9.4|
7,6,6.5|
7,7,2.6|
];
constraint_x11_x10=[
0,0,9.4|
0,1,0.94|
0,2,5.3|
0,3,7.3|
0,4,1.2|
0,5,7|
0,6,5.9|
0,7,4.9|
1,0,7.8|
1,1,1.3|
1,2,9|
1,3,6.5|
1,4,9.8|
1,5,1.7|
1,6,6.2|
1,7,7.2|
2,0,3.6|
2,1,6.2|
2,2,8.4|
2,3,6.3|
2,4,8|
2,5,1.4|
2,6,0.17|
2,7,5.6|
3,0,9.1|
3,1,0.5|
3,2,7.8|
3,3,2.6|
3,4,7.9|
3,5,4.5|
3,6,4.4|
3,7,7.2|
4,0,0.4|
4,1,9.3|
4,2,4.8|
4,3,7.2|
4,4,6.2|
4,5,8.8|
4,6,3.1|
4,7,9.8|
5,0,0.68|
5,1,1.3|
5,2,6.3|
5,3,6.3|
5,4,8.3|
5,5,3|
5,6,0.58|
5,7,1.2|
6,0,3.2|
6,1,9.9|
6,2,0.84|
6,3,4.4|
6,4,5.7|
6,5,4.1|
6,6,3.3|
6,7,2.1|
7,0,1.1|
7,1,6.2|
7,2,0.026|
7,3,3|
7,4,7.3|
7,5,4.3|
7,6,1.5|
7,7,7|
];
constraint_x12_x8=[
0,0,9.7|
0,1,1.2|
0,2,0.17|
0,3,1|
0,4,2.4|
0,5,0.32|
0,6,3.1|
0,7,9.7|
1,0,5.7|
1,1,5.3|
1,2,8.7|
1,3,4.3|
1,4,0.57|
1,5,9.2|
1,6,1.5|
1,7,7.9|
2,0,6.8|
2,1,7.2|
2,2,7.4|
2,3,9.2|
2,4,7.2|
2,5,2.3|
2,6,5.3|
2,7,8.2|
3,0,5.3|
3,1,1.1|
3,2,3.2|
3,3,6.6|
3,4,0.91|
3,5,7.6|
3,6,4|
3,7,5.2|
4,0,7.8|
4,1,9.7|
4,2,3.7|
4,3,9.1|
4,4,6.1|
4,5,2.3|
4,6,1.9|
4,7,3.8|
5,0,1.3|
5,1,8.8|
5,2,7.5|
5,3,7|
5,4,2.2|
5,5,7.5|
5,6,6.3|
5,7,7.9|
6,0,2.7|
6,1,8|
6,2,2.4|
6,3,7.9|
6,4,0.24|
6,5,6.1|
6,6,3|
6,7,3.5|
7,0,4.8|
7,1,0.7|
7,2,7|
7,3,4.6|
7,4,1.1|
7,5,5.2|
7,6,2|
7,7,9.8|
];
constraint_x12_x11=[
0,0,5.7|
0,1,2.5|
0,2,1.8|
0,3,0.099|
0,4,0.86|
0,5,4.4|
0,6,0.48|
0,7,8.2|
1,0,5.4|
1,1,4.3|
1,2,0.98|
1,3,2.7|
1,4,3.9|
1,5,1.9|
1,6,6.4|
1,7,8.3|
2,0,6.6|
2,1,5.3|
2,2,0.34|
2,3,5.7|
2,4,8.4|
2,5,1.7|
2,6,1.7|
2,7,3.9|
3,0,3.2|
3,1,5.8|
3,2,2.7|
3,3,5.6|
3,4,0.28|
3,5,3.5|
3,6,3.4|
3,7,2.7|
4,0,4.5|
4,1,3.7|
4,2,8|
4,3,1.9|
4,4,4.2|
4,5,5.7|
4,6,7|
4,7,5.2|
5,0,7.9|
5,1,5.2|
5,2,2.4|
5,3,7.1|
5,4,9.5|
5,5,5.8|
5,6,1.1|
5,7,0.91|
6,0,9.5|
6,1,8.2|
6,2,2.8|
6,3,0.7|
6,4,6.6|
6,5,0.46|
6,6,2.8|
6,7,1.4|
7,0,5.6|
7,1,7.5|
7,2,0.75|
7,3,4.7|
7,4,0.6|
7,5,2.6|
7,6,4|
7,7,8.8|
];
constraint_x13_x9=[
0,0,5.9|
0,1,1.5|
0,2,5.2|
0,3,7.2|
0,4,9.2|
0,5,0.15|
0,6,1.3|
0,7,5.6|
1,0,8.5|
1,1,3.2|
1,2,8.5|
1,3,9.3|
1,4,2.3|
1,5,4|
1,6,5.9|
1,7,2.3|
2,0,1.9|
2,1,7|
2,2,9.9|
2,3,8.5|
2,4,4.6|
2,5,5.1|
2,6,5.3|
2,7,9.1|
3,0,0.92|
3,1,9.8|
3,2,0.3|
3,3,6.7|
3,4,2.2|
3,5,8.7|
3,6,2.7|
3,7,8.6|
4,0,1.7|
4,1,2.7|
4,2,2.6|
4,3,3.5|
4,4,8.3|
4,5,0.95|
4,6,9.2|
4,7,1.4|
5,0,1.3|
5,1,2|
5,2,1.8|
5,3,9.8|
5,4,1.8|
5,5,5.3|
5,6,8.4|
5,7,3.9|
6,0,8.9|
6,1,3.1|
6,2,5.5|
6,3,2.4|
6,4,7.3|
6,5,2.6|
6,6,8.1|
6,7,0.6|
7,0,7.7|
7,1,8.5|
7,2,3.7|
7,3,7.1|
7,4,2.8|
7,5,3.9|
7,6,5.9|
7,7,7|
];
constraint_x14_x10=[
0,0,2.3|
0,1,3.9|
0,2,2.7|
0,3,4.5|
0,4,8.6|
0,5,3.7|
0,6,8.5|
0,7,1.9|
1,0,4.8|
1,1,5.1|
1,2,5.6|
1,3,2.7|
1,4,7.9|
1,5,8.3|
1,6,9.6|
1,7,8.1|
2,0,8.9|
2,1,9.4|
2,2,9.5|
2,3,9.8|
2,4,4.8|
2,5,3.9|
2,6,2.5|
2,7,8.8|
3,0,2.3|
3,1,5.7|
3,2,2.9|
3,3,2.6|
3,4,2.7|
3,5,0.3|
3,6,1.2|
3,7,8.9|
4,0,7.1|
4,1,2.4|
4,2,9.2|
4,3,9.9|
4,4,8.7|
4,5,4.6|
4,6,2.6|
4,7,1.1|
5,0,3.5|
5,1,6.8|
5,2,3.4|
5,3,7.6|
5,4,9.1|
5,5,2.5|
5,6,3|
5,7,8.9|
6,0,9.9|
6,1,0.57|
6,2,8.7|
6,3,5.4|
6,4,9.7|
6,5,3.7|
6,6,4.2|
6,7,8.4|
7,0,1.5|
7,1,0.9|
7,2,8.2|
7,3,9.1|
7,4,9.5|
7,5,0.68|
7,6,3.5|
7,7,3.6|
];
constraint_x14_x13=[
0,0,6|
0,1,0.54|
0,2,1.4|
0,3,1.8|
0,4,8.7|
0,5,2.1|
0,6,6.9|
0,7,0.38|
1,0,9.8|
1,1,1.1|
1,2,9.6|
1,3,1.9|
1,4,2.7|
1,5,0.17|
1,6,4.8|
1,7,5.9|
2,0,1.1|
2,1,0.096|
2,2,8.6|
2,3,3.3|
2,4,3.8|
2,5,2.2|
2,6,1.2|
2,7,4.1|
3,0,6.8|
3,1,7.3|
3,2,4.8|
3,3,0.45|
3,4,3.8|
3,5,7.7|
3,6,3.8|
3,7,5.4|
4,0,7.2|
4,1,0.13|
4,2,6|
4,3,4|
4,4,0.19|
4,5,8.4|
4,6,2.1|
4,7,9.2|
5,0,2.4|
5,1,1.7|
5,2,8.1|
5,3,1.9|
5,4,0.97|
5,5,3.8|
5,6,9.8|
5,7,7.1|
6,0,6.3|
6,1,8|
6,2,0.98|
6,3,7.1|
6,4,1.1|
6,5,3|
6,6,2.4|
6,7,5|
7,0,9.4|
7,1,2|
7,2,3|
7,3,7.1|
7,4,1.4|
7,5,9|
7,6,7.6|
7,7,5.6|
];
constraint_x15_x11=[
0,0,2.4|
0,1,4.3|
0,2,0.51|
0,3,8.4|
0,4,5.6|
0,5,3.9|
0,6,5.3|
0,7,1.4|
1,0,0.21|
1,1,7.5|
1,2,7.5|
1,3,9.2|
1,4,7|
1,5,1.4|
1,6,5.9|
1,7,4.2|
2,0,3.1|
2,1,7|
2,2,9.5|
2,3,5|
2,4,7.6|
2,5,1.8|
2,6,2.7|
2,7,0.033|
3,0,1.4|
3,1,6.8|
3,2,6.5|
3,3,3.4|
3,4,9.1|
3,5,7.4|
3,6,4.7|
3,7,4.3|
4,0,4.7|
4,1,5.2|
4,2,9.3|
4,3,2.8|
4,4,0.56|
4,5,1.7|
4,6,3.5|
4,7,9.5|
5,0,3.8|
5,1,1.4|
5,2,3.4|
5,3,7.4|
5,4,3.8|
5,5,8.2|
5,6,1.8|
5,7,0.46|
6,0,1.4|
6,1,7.3|
6,2,8.3|
6,3,9.4|
6,4,1.5|
6,5,1.4|
6,6,0.56|
6,7,8|
7,0,7.5|
7,1,7|
7,2,4.9|
7,3,1.6|
7,4,2.4|
7,5,7.6|
7,6,0.74|
7,7,7.9|
];
constraint_x15_x14=[
0,0,5.4|
0,1,7.2|
0,2,5.8|
0,3,7.4|
0,4,6.2|
0,5,8.1|
0,6,5.9|
0,7,2.1|
1,0,7.3|
1,1,6.9|
1,2,9.7|
1,3,0.62|
1,4,4.3|
1,5,3.4|
1,6,6.9|
1,7,2.3|
2,0,4.5|
2,1,4.2|
2,2,5.1|
2,3,4.6|
2,4,5.7|
2,5,0.76|
2,6,0.99|
2,7,0.59|
3,0,2.3|
3,1,8.7|
3,2,7.8|
3,3,7.3|
3,4,7.6|
3,5,6.6|
3,6,9.4|
3,7,3.1|
4,0,3.7|
4,1,4.4|
4,2,8.1|
4,3,2.1|
4,4,3.7|
4,5,0.0034|
4,6,0.51|
4,7,0.59|
5,0,6.1|
5,1,5.6|
5,2,4.9|
5,3,9.8|
5,4,9.5|
5,5,4.5|
5,6,6|
5,7,2.3|
6,0,10|
6,1,6|
6,2,3.3|
6,3,5.6|
6,4,5.3|
6,5,6.9|
6,6,5.3|
6,7,3.4|
7,0,1.2|
7,1,6.6|
7,2,8.3|
7,3,6.6|
7,4,4.7|
7,5,9.5|
7,6,7.5|
7,7,4.9|
];
constraint_x16_x12=[
0,0,9.2|
0,1,7.5|
0,2,8.8|
0,3,4.3|
0,4,8.1|
0,5,0.098|
0,6,1.9|
0,7,9.9|
1,0,1.5|
1,1,1.6|
1,2,3.5|
1,3,9.7|
1,4,0.1|
1,5,1.5|
1,6,6|
1,7,5.8|
2,0,0.85|
2,1,2.6|
2,2,9.4|
2,3,8.1|
2,4,5.6|
2,5,3.6|
2,6,7.5|
2,7,4.9|
3,0,0.31|
3,1,9.9|
3,2,6.2|
3,3,9.8|
3,4,8.7|
3,5,1.2|
3,6,8|
3,7,5.4|
4,0,8.7|
4,1,9.6|
4,2,5.1|
4,3,8.8|
4,4,4|
4,5,4.3|
4,6,7|
4,7,2.5|
5,0,9.6|
5,1,8.6|
5,2,0.19|
5,3,0.89|
5,4,3.2|
5,5,0.059|
5,6,0.26|
5,7,2.9|
6,0,2.8|
6,1,4.4|
6,2,0.14|
6,3,7.1|
6,4,2.4|
6,5,1.3|
6,6,7.1|
6,7,5.3|
7,0,0.15|
7,1,9.7|
7,2,8.4|
7,3,1.1|
7,4,6.1|
7,5,5.9|
7,6,5.9|
7,7,6.3|
];
constraint_x16_x15=[
0,0,6.8|
0,1,0.053|
0,2,3.3|
0,3,0.79|
0,4,0.22|
0,5,0.44|
0,6,6.1|
0,7,5.6|
1,0,5.3|
1,1,6.1|
1,2,2|
1,3,7.9|
1,4,6|
1,5,9|
1,6,3.9|
1,7,4.5|
2,0,1.1|
2,1,8.4|
2,2,0.91|
2,3,0.46|
2,4,7.7|
2,5,2.2|
2,6,1.8|
2,7,1.3|
3,0,2.9|
3,1,9.9|
3,2,0.79|
3,3,8.7|
3,4,4.7|
3,5,2.3|
3,6,3|
3,7,6.4|
4,0,1.1|
4,1,5|
4,2,6.1|
4,3,3.3|
4,4,6.7|
4,5,1.9|
4,6,6.4|
4,7,5.2|
5,0,7.8|
5,1,2.3|
5,2,3.3|
5,3,3.8|
5,4,9.3|
5,5,0.22|
5,6,1.9|
5,7,6.4|
6,0,6.4|
6,1,3.5|
6,2,4.3|
6,3,1.1|
6,4,3.5|
6,5,2.6|
6,6,8.1|
6,7,3.4|
7,0,4|
7,1,2.3|
7,2,7.2|
7,3,5.2|
7,4,4.4|
7,5,0.63|
7,6,1.8|
7,7,7.6|
];
constraint_x17_x13=[
0,0,5.5|
0,1,5.4|
0,2,9.8|
0,3,9.8|
0,4,8.5|
0,5,4.4|
0,6,2|
0,7,5.6|
1,0,7.8|
1,1,6.4|
1,2,9.9|
1,3,7.4|
1,4,0.81|
1,5,0.94|
1,6,4.9|
1,7,5.2|
2,0,3.2|
2,1,4.3|
2,2,0.88|
2,3,8.7|
2,4,2.3|
2,5,1|
2,6,1.1|
2,7,4.8|
3,0,6.6|
3,1,8.2|
3,2,9.6|
3,3,1.5|
3,4,1.9|
3,5,8.4|
3,6,5.9|
3,7,4.7|
4,0,8.9|
4,1,0.17|
4,2,9.7|
4,3,5.2|
4,4,2.8|
4,5,0.18|
4,6,1.6|
4,7,9|
5,0,5.1|
5,1,9.5|
5,2,6.3|
5,3,8.2|
5,4,0.16|
5,5,1.7|
5,6,4.4|
5,7,6.2|
6,0,6|
6,1,2.7|
6,2,8.1|
6,3,2.2|
6,4,7.8|
6,5,8.9|
6,6,7.4|
6,7,3.7|
7,0,8.4|
7,1,6.3|
7,2,5.1|
7,3,6.2|
7,4,4.3|
7,5,0.3|
7,6,9.6|
7,7,1.5|
];
constraint_x18_x14=[
0,0,2|
0,1,7.8|
0,2,8.7|
0,3,9.2|
0,4,6|
0,5,8.1|
0,6,1.6|
0,7,1.8|
1,0,3.6|
1,1,8|
1,2,0.86|
1,3,8.5|
1,4,1.2|
1,5,3.5|
1,6,10|
1,7,9.4|
2,0,0.22|
2,1,1.7|
2,2,3.1|
2,3,9|
2,4,9.9|
2,5,1.8|
2,6,6.9|
2,7,9.7|
3,0,1.7|
3,1,8.4|
3,2,7.4|
3,3,6.1|
3,4,0.92|
3,5,6.1|
3,6,5.9|
3,7,10|
4,0,4|
4,1,7.6|
4,2,7.8|
4,3,4.8|
4,4,3.6|
4,5,0.46|
4,6,0.94|
4,7,4.3|
5,0,6.2|
5,1,0.65|
5,2,1.6|
5,3,8.6|
5,4,7.5|
5,5,5.2|
5,6,6.9|
5,7,8.7|
6,0,1.6|
6,1,4.7|
6,2,6|
6,3,8.1|
6,4,8.8|
6,5,6.5|
6,6,4.4|
6,7,6.3|
7,0,5.4|
7,1,3.9|
7,2,7.8|
7,3,5.4|
7,4,0.69|
7,5,6.5|
7,6,2.3|
7,7,0.72|
];
constraint_x19_x15=[
0,0,8.4|
0,1,6.8|
0,2,1.5|
0,3,0.42|
0,4,2.3|
0,5,9.9|
0,6,3.8|
0,7,8.3|
1,0,4.2|
1,1,4.4|
1,2,0.92|
1,3,8.4|
1,4,4.7|
1,5,6.3|
1,6,0.4|
1,7,2.3|
2,0,3.7|
2,1,3.2|
2,2,8.6|
2,3,9.1|
2,4,7.6|
2,5,6.7|
2,6,2.9|
2,7,9.8|
3,0,1.2|
3,1,6.6|
3,2,2.9|
3,3,4.7|
3,4,7.7|
3,5,8.9|
3,6,1|
3,7,3|
4,0,4.8|
4,1,3.5|
4,2,4.4|
4,3,8|
4,4,7.9|
4,5,6.7|
4,6,0.84|
4,7,9.7|
5,0,0.52|
5,1,2.9|
5,2,5|
5,3,1.2|
5,4,7.5|
5,5,4.3|
5,6,8.4|
5,7,3|
6,0,7.7|
6,1,5.5|
6,2,2.7|
6,3,3.2|
6,4,5.3|
6,5,9.2|
6,6,6.5|
6,7,9.1|
7,0,7.2|
7,1,4.3|
7,2,3.8|
7,3,4.1|
7,4,7|
7,5,0.67|
7,6,2.7|
7,7,9.9|
];
constraint_x20_x16=[
0,0,2.5|
0,1,3|
0,2,2.7|
0,3,8.5|
0,4,5.3|
0,5,9.4|
0,6,4.6|
0,7,0.16|
1,0,8.5|
1,1,8.7|
1,2,0.16|
1,3,3|
1,4,5.1|
1,5,3.9|
1,6,9.4|
1,7,8.9|
2,0,9.2|
2,1,5.8|
2,2,1.5|
2,3,3|
2,4,9.3|
2,5,9.9|
2,6,6|
2,7,6.2|
3,0,8.5|
3,1,2.5|
3,2,3.4|
3,3,9.3|
3,4,4.4|
3,5,8.7|
3,6,4.3|
3,7,3.3|
4,0,5.5|
4,1,5.9|
4,2,1.4|
4,3,9.5|
4,4,1.3|
4,5,2.6|
4,6,0.69|
4,7,6|
5,0,9.5|
5,1,3.8|
5,2,3.3|
5,3,8.8|
5,4,4.5|
5,5,2.2|
5,6,9.4|
5,7,3.4|
6,0,0.4|
6,1,0.82|
6,2,6.1|
6,3,8.3|
6,4,1.6|
6,5,2|
6,6,1.3|
6,7,1.4|
7,0,9.4|
7,1,3.9|
7,2,9.2|
7,3,4.2|
7,4,0.38|
7,5,4.9|
7,6,2.8|
7,7,4.5|
];
constraint_x1_y1=[
0,0,6.3|
0,1,4.9|
0,2,6.2|
0,3,1.1|
0,4,9.2|
0,5,9.1|
0,6,7.5|
0,7,2.5|
1,0,2|
1,1,5.3|
1,2,5.9|
1,3,0.43|
1,4,9.2|
1,5,4.1|
1,6,9.8|
1,7,5.1|
2,0,9|
2,1,1.4|
2,2,2.2|
2,3,5.1|
2,4,8.7|
2,5,0.66|
2,6,3|
2,7,4.7|
3,0,8.9|
3,1,8.2|
3,2,0.68|
3,3,7.9|
3,4,2|
3,5,8.4|
3,6,2.9|
3,7,1.4|
4,0,4.4|
4,1,2.7|
4,2,6.1|
4,3,0.28|
4,4,1.4|
4,5,6.8|
4,6,0.67|
4,7,2.8|
5,0,7.5|
5,1,9.8|
5,2,2.2|
5,3,2|
5,4,4.6|
5,5,5.8|
5,6,2.5|
5,7,7.9|
6,0,6.5|
6,1,9.8|
6,2,2.7|
6,3,1.3|
6,4,5.1|
6,5,8.9|
6,6,7.6|
6,7,0.92|
7,0,7.8|
7,1,5.5|
7,2,6.5|
7,3,4.6|
7,4,9.3|
7,5,1.2|
7,6,3.4|
7,7,2.7|
];
constraint_x2_y2=[
0,0,1.3|
0,1,3.3|
0,2,2|
0,3,5.2|
0,4,2.1|
0,5,4.1|
0,6,4.7|
0,7,0.96|
1,0,9.5|
1,1,1.8|
1,2,4.8|
1,3,2.5|
1,4,3.5|
1,5,9.9|
1,6,7.3|
1,7,4.5|
2,0,0.19|
2,1,0.55|
2,2,9.6|
2,3,6.2|
2,4,5.9|
2,5,6.6|
2,6,0.058|
2,7,3.4|
3,0,3.7|
3,1,6.1|
3,2,1|
3,3,9.8|
3,4,2.3|
3,5,8.9|
3,6,6.3|
3,7,5|
4,0,9.6|
4,1,4.3|
4,2,8.3|
4,3,7.4|
4,4,7.7|
4,5,9.7|
4,6,8.4|
4,7,0.75|
5,0,7.7|
5,1,5.6|
5,2,8|
5,3,8.5|
5,4,7.5|
5,5,0.66|
5,6,0.68|
5,7,9.9|
6,0,7.7|
6,1,0.056|
6,2,7.8|
6,3,5.2|
6,4,9|
6,5,5.6|
6,6,1.9|
6,7,9.1|
7,0,7.7|
7,1,3.6|
7,2,5.9|
7,3,8.6|
7,4,6.9|
7,5,7.4|
7,6,4.6|
7,7,6.3|
];
constraint_x3_y3=[
0,0,6.8|
0,1,1.4|
0,2,0.17|
0,3,0.053|
0,4,5.8|
0,5,0.17|
0,6,9.3|
0,7,0.13|
1,0,6|
1,1,4.3|
1,2,9.4|
1,3,7.6|
1,4,3|
1,5,1.6|
1,6,5.6|
1,7,6.7|
2,0,3.8|
2,1,5.8|
2,2,8|
2,3,7.1|
2,4,4.8|
2,5,5.8|
2,6,0.8|
2,7,7.6|
3,0,7.6|
3,1,7|
3,2,3.4|
3,3,0.43|
3,4,8.5|
3,5,9.1|
3,6,4.3|
3,7,1.3|
4,0,0.89|
4,1,0.75|
4,2,4.3|
4,3,9.5|
4,4,9.3|
4,5,8.4|
4,6,4.6|
4,7,9.5|
5,0,2.6|
5,1,2.3|
5,2,1.3|
5,3,4.5|
5,4,6|
5,5,5|
5,6,2.1|
5,7,7.6|
6,0,1.5|
6,1,1.4|
6,2,0.031|
6,3,5.2|
6,4,2.7|
6,5,2.9|
6,6,1.9|
6,7,3|
7,0,8|
7,1,4.9|
7,2,9.4|
7,3,7.4|
7,4,5|
7,5,8.6|
7,6,6.2|
7,7,5.9|
];
constraint_x4_y4=[
0,0,6.1|
0,1,2.5|
0,2,6.1|
0,3,4.7|
0,4,7.8|
0,5,2.5|
0,6,7.2|
0,7,5.1|
1,0,6.6|
1,1,8.3|
1,2,8.2|
1,3,6.7|
1,4,9.6|
1,5,5.7|
1,6,7.2|
1,7,7.5|
2,0,1.5|
2,1,0.82|
2,2,0.65|
2,3,8.4|
2,4,4.3|
2,5,8.9|
2,6,7.7|
2,7,7.9|
3,0,1.5|
3,1,1.3|
3,2,1.3|
3,3,5|
3,4,8.6|
3,5,5.1|
3,6,9.9|
3,7,6.8|
4,0,8|
4,1,0.71|
4,2,1.4|
4,3,7.3|
4,4,4.6|
4,5,2.9|
4,6,4.3|
4,7,1.7|
5,0,7.5|
5,1,3.5|
5,2,5.2|
5,3,3.6|
5,4,8.9|
5,5,4.4|
5,6,1.9|
5,7,2.1|
6,0,6.2|
6,1,8.8|
6,2,0.6|
6,3,7.2|
6,4,6.7|
6,5,7.1|
6,6,3|
6,7,2|
7,0,5.4|
7,1,9.8|
7,2,3.7|
7,3,7.7|
7,4,3.8|
7,5,1.3|
7,6,9.9|
7,7,5.5|
];
constraint_x5_y5=[
0,0,7|
0,1,6.6|
0,2,3.7|
0,3,3|
0,4,2.8|
0,5,0.32|
0,6,0.66|
0,7,4.8|
1,0,3.3|
1,1,9.3|
1,2,9.7|
1,3,6.4|
1,4,8.1|
1,5,6.8|
1,6,7.3|
1,7,1.1|
2,0,8.7|
2,1,5.8|
2,2,6.2|
2,3,9.9|
2,4,3.4|
2,5,8|
2,6,8.6|
2,7,2.9|
3,0,6.3|
3,1,2.7|
3,2,9.2|
3,3,9.1|
3,4,5.4|
3,5,4.1|
3,6,4|
3,7,9.3|
4,0,8.6|
4,1,6.5|
4,2,6.1|
4,3,4.4|
4,4,6.7|
4,5,6.3|
4,6,0.037|
4,7,4.1|
5,0,6.3|
5,1,9.9|
5,2,8.1|
5,3,2.4|
5,4,1.7|
5,5,3.8|
5,6,9|
5,7,8.5|
6,0,1.8|
6,1,4.7|
6,2,6.5|
6,3,3.9|
6,4,7|
6,5,9.2|
6,6,7.5|
6,7,7.1|
7,0,7.9|
7,1,5.7|
7,2,6|
7,3,3.4|
7,4,0.38|
7,5,2.1|
7,6,1.6|
7,7,0.64|
];
constraint_x6_y6=[
0,0,4.5|
0,1,7.2|
0,2,0.88|
0,3,6.5|
0,4,8|
0,5,6.9|
0,6,5.2|
0,7,2.7|
1,0,0.043|
1,1,2.8|
1,2,5.6|
1,3,6.4|
1,4,3.1|
1,5,2|
1,6,8.2|
1,7,5.5|
2,0,3.3|
2,1,7.8|
2,2,5|
2,3,6.3|
2,4,3.2|
2,5,1.9|
2,6,1.7|
2,7,9.5|
3,0,6.6|
3,1,7.1|
3,2,6.3|
3,3,8.5|
3,4,9.7|
3,5,9.3|
3,6,1.3|
3,7,6.2|
4,0,3.1|
4,1,4.4|
4,2,5|
4,3,7.8|
4,4,2.1|
4,5,1.4|
4,6,1.6|
4,7,5.7|
5,0,5.3|
5,1,1|
5,2,9.3|
5,3,9.3|
5,4,3.5|
5,5,2.3|
5,6,3.9|
5,7,8.4|
6,0,7.6|
6,1,1.5|
6,2,8.1|
6,3,1.9|
6,4,5.8|
6,5,5.2|
6,6,6.6|
6,7,7.2|
7,0,4.1|
7,1,4.3|
7,2,6.8|
7,3,9.4|
7,4,6|
7,5,9.2|
7,6,4.5|
7,7,1.9|
];
constraint_x7_y7=[
0,0,3.2|
0,1,6|
0,2,4.3|
0,3,0.61|
0,4,5.3|
0,5,7.9|
0,6,6.6|
0,7,8.7|
1,0,4.4|
1,1,1.8|
1,2,2.1|
1,3,4.7|
1,4,1.1|
1,5,9.4|
1,6,2.5|
1,7,8.3|
2,0,5.1|
2,1,6.8|
2,2,6.5|
2,3,0.051|
2,4,0.71|
2,5,7.2|
2,6,1.9|
2,7,9.2|
3,0,1|
3,1,5|
3,2,2.8|
3,3,4.4|
3,4,4|
3,5,6.6|
3,6,4.3|
3,7,0.82|
4,0,4.4|
4,1,2.7|
4,2,7|
4,3,1|
4,4,8|
4,5,2.5|
4,6,3.9|
4,7,9|
5,0,3.7|
5,1,0.75|
5,2,8.9|
5,3,9.7|
5,4,3.6|
5,5,4.7|
5,6,7.3|
5,7,5.2|
6,0,6.1|
6,1,2.6|
6,2,3.6|
6,3,7.9|
6,4,2.1|
6,5,9.2|
6,6,4.4|
6,7,8.3|
7,0,4.3|
7,1,2.7|
7,2,3.6|
7,3,9.6|
7,4,8.4|
7,5,0.5|
7,6,2.7|
7,7,9.1|
];
constraint_x8_y8=[
0,0,2.8|
0,1,7.8|
0,2,2.6|
0,3,6.1|
0,4,7.5|
0,5,8.5|
0,6,1.5|
0,7,7.2|
1,0,6.4|
1,1,0.074|
1,2,6.4|
1,3,0.83|
1,4,8.8|
1,5,2.4|
1,6,7.6|
1,7,7.1|
2,0,9.8|
2,1,1.8|
2,2,6.2|
2,3,8.1|
2,4,1.3|
2,5,4.8|
2,6,0.071|
2,7,4.5|
3,0,3.1|
3,1,4|
3,2,1.4|
3,3,5.9|
3,4,0.94|
3,5,0.048|
3,6,1.3|
3,7,1.7|
4,0,3.2|
4,1,1.2|
4,2,2.3|
4,3,3.5|
4,4,4.2|
4,5,4.6|
4,6,9.4|
4,7,2.8|
5,0,2.8|
5,1,1.7|
5,2,7.6|
5,3,5.5|
5,4,3.3|
5,5,1.9|
5,6,3.6|
5,7,1.9|
6,0,7.5|
6,1,5.8|
6,2,7.8|
6,3,5.6|
6,4,1.3|
6,5,5.8|
6,6,0.2|
6,7,4.2|
7,0,7.5|
7,1,9.5|
7,2,3.8|
7,3,4.3|
7,4,5.8|
7,5,2.6|
7,6,4|
7,7,4.8|
];
constraint_x9_y9=[
0,0,4|
0,1,1.8|
0,2,3.2|
0,3,8.1|
0,4,1.5|
0,5,5.9|
0,6,5|
0,7,7.4|
1,0,9.3|
1,1,9.2|
1,2,0.95|
1,3,6.8|
1,4,6|
1,5,0.46|
1,6,2.2|
1,7,5.5|
2,0,0.59|
2,1,3.7|
2,2,1.8|
2,3,3.8|
2,4,8.1|
2,5,1.7|
2,6,5.9|
2,7,8.3|
3,0,5.7|
3,1,3.5|
3,2,5.2|
3,3,7.4|
3,4,1.2|
3,5,5.4|
3,6,4.9|
3,7,9.9|
4,0,2.6|
4,1,0.88|
4,2,5.1|
4,3,1.6|
4,4,0.8|
4,5,2.4|
4,6,5.4|
4,7,3.6|
5,0,5.5|
5,1,6.6|
5,2,4.1|
5,3,5|
5,4,7.2|
5,5,3|
5,6,5.5|
5,7,5.2|
6,0,2.2|
6,1,6.2|
6,2,9.3|
6,3,4.8|
6,4,4.9|
6,5,0.64|
6,6,6|
6,7,6.1|
7,0,5.5|
7,1,6.7|
7,2,6.1|
7,3,7.9|
7,4,0.28|
7,5,3.8|
7,6,2.3|
7,7,1.8|
];
initial_distribution_y1=[0.077,0.13,0.013,0.11,0.1,0.28,0.11,0.19];
initial_distribution_y2=[0.037,0.035,0.19,0.26,0.029,0.14,0.1,0.21];
initial_distribution_y3=[0.085,0.089,0.19,0.093,0.19,0.13,0.079,0.14];
initial_distribution_y4=[0.16,0.19,0.045,0.066,0.062,0.19,0.16,0.13];
initial_distribution_y5=[0.14,0.12,0.011,0.2,0.058,0.22,0.053,0.19];
initial_distribution_y6=[0.034,0.0068,0.11,0.2,0.23,0.12,0.084,0.22];
initial_distribution_y7=[0.13,0.15,0.042,0.13,0.15,0.13,0.13,0.15];
initial_distribution_y8=[0.1,0.053,0.13,0.21,0.17,0.2,0.082,0.059];
initial_distribution_y9=[0.095,0.2,0.097,0.14,0.21,0.045,0.12,0.098];
transition_y1=[
0.06,0.095,0.27,0.11,0.14,0.11,0.063,0.14|
0.077,0.23,0.1,0.16,0.23,0.052,0.12,0.026|
0.1,0.02,0.013,0.17,0.099,0.13,0.25,0.22|
0.27,0.17,0.012,0.16,0.11,0.12,0.019,0.13|
0.15,0.17,0.13,0.064,0.12,0.18,0.017,0.17|
0.031,0.32,0.01,0.0058,0.17,0.13,0.031,0.31|
0.27,0.047,0.096,0.32,0.04,0.043,0.048,0.13|
0.025,0.13,0.22,0.15,0.2,0.048,0.064,0.16|
];
transition_y2=[
0.071,0.13,0.22,0.14,0.19,0.059,0.084,0.11|
0.12,0.16,0.18,0.16,0.11,0.056,0.059,0.15|
0.17,0.068,0.078,0.11,0.18,0.042,0.18,0.17|
0.29,0.16,0.086,0.065,0.015,0.068,0.12,0.2|
0.11,0.076,0.099,0.11,0.18,0.012,0.22,0.19|
0.2,0.23,0.0087,0.15,0.028,0.12,0.14,0.11|
0.025,0.12,0.14,0.029,0.26,0.17,0.23,0.032|
0.043,0.086,0.082,0.19,0.15,0.2,0.13,0.12|
];
transition_y3=[
0.059,0.18,0.074,0.15,0.16,0.022,0.19,0.18|
0.24,0.035,0.082,0.025,0.13,0.23,0.17,0.086|
0.063,0.21,0.02,0.2,0.15,0.094,0.05,0.21|
0.15,0.15,0.16,0.15,0.14,0.093,0.055,0.11|
0.026,0.077,0.22,0.23,0.12,0.14,0.12,0.076|
0.099,0.15,0.17,0.22,0.093,0.017,0.24,0.0083|
0.13,0.15,0.14,0.17,0.1,0.18,0.083,0.039|
0.1,0.22,0.11,0.22,0.15,0.047,0.097,0.068|
];
transition_y4=[
0.033,0.17,0.31,0.029,0.1,0.25,0.094,0.0085|
0.047,0.12,0.02,0.25,0.23,0.054,0.26,0.017|
0.058,0.15,0.17,0.18,0.085,0.074,0.19,0.092|
0.074,0.036,0.066,0.17,0.04,0.25,0.16,0.21|
0.065,0.05,0.15,0.07,0.19,0.13,0.17,0.17|
0.17,0.12,0.0087,0.15,0.2,0.081,0.16,0.11|
0.065,0.32,0.025,0.16,0.092,0.18,0.052,0.11|
0.075,0.23,0.033,0.081,0.19,0.17,0.21,0.017|
];
transition_y5=[
0.17,0.11,0.079,0.2,0.14,0.053,0.098,0.15|
0.076,0.19,0.041,0.044,0.19,0.13,0.17,0.16|
0.076,0.041,0.25,0.27,0.047,0.023,0.056,0.24|
0.16,0.16,0.068,0.034,0.12,0.16,0.11,0.2|
0.16,0.2,0.21,0.1,0.049,0.24,0.015,0.029|
0.033,0.021,0.22,0.13,0.11,0.029,0.2,0.25|
0.031,0.096,0.24,0.29,0.07,0.073,0.16,0.034|
0.16,0.084,0.19,0.05,0.047,0.2,0.16,0.11|
];
transition_y6=[
0.012,0.25,0.033,0.26,0.08,0.095,0.12,0.16|
0.2,0.021,0.12,0.066,0.2,0.057,0.2,0.13|
0.015,0.21,0.2,0.079,0.16,0.074,0.13,0.13|
0.1,0.17,0.093,0.079,0.13,0.15,0.15,0.13|
0.043,0.2,0.12,0.083,0.18,0.16,0.19,0.024|
0.089,0.14,0.15,0.18,0.092,0.15,0.057,0.14|
0.063,0.16,0.2,0.18,0.024,0.1,0.12,0.16|
0.018,0.087,0.037,0.26,0.096,0.18,0.26,0.053|
];
transition_y7=[
0.038,0.15,0.26,0.24,0.035,0.14,0.097,0.041|
0.14,0.014,0.22,0.1,0.042,0.22,0.2,0.055|
0.21,0.19,0.081,0.087,0.009,0.021,0.17,0.23|
0.067,0.093,0.098,0.09,0.047,0.18,0.21,0.21|
0.17,0.17,0.12,0.051,0.2,0.053,0.14,0.1|
0.08,0.11,0.11,0.25,0.072,0.22,0.13,0.024|
0.12,0.2,0.081,0.082,0.098,0.075,0.13,0.21|
0.24,0.033,0.16,0.093,0.15,0.0058,0.25,0.063|
];
transition_y8=[
0.18,0.11,0.12,0.045,0.0071,0.28,0.043,0.22|
0.15,0.19,0.17,0.11,0.098,0.11,0.065,0.1|
0.24,0.2,0.058,0.013,0.084,0.24,0.13,0.029|
0.23,0.22,0.014,0.2,0.08,0.18,0.058,0.023|
0.052,0.079,0.067,0.16,0.087,0.21,0.19,0.15|
0.13,0.14,0.18,0.044,0.14,0.076,0.17,0.12|
0.018,0.03,0.19,0.2,0.19,0.092,0.063,0.22|
0.03,0.22,0.044,0.18,0.033,0.086,0.18,0.23|
];
transition_y9=[
0.22,0.088,0.16,0.15,0.075,0.06,0.036,0.22|
0.18,0.2,0.07,0.22,0.0046,0.18,0.075,0.072|
0.12,0.15,0.12,0.2,0.054,0.15,0.1,0.11|
0.077,0.14,0.17,0.1,0.2,0.14,0.15,0.011|
0.035,0.032,0.19,0.12,0.13,0.17,0.13,0.19|
0.016,0.026,0.075,0.29,0.081,0.053,0.18,0.28|
0.037,0.14,0.23,0.12,0.24,0.18,0.0071,0.041|
0.022,0.086,0.2,0.07,0.35,0.024,0.13,0.11|
];
